&CONTROL
   tprnfor          = .true.
   disk_io          = 'low'
   pseudo_dir       = './'
   calculation      = 'relax'
/
&SYSTEM
   ecutwfc          = 50
   occupations      = 'smearing'
   degauss          = 0.2
   smearing         = 'gauss'
   ntyp             = 1
   nat              = 24
   ibrav            = 0
/
&ELECTRONS
   mixing_beta      = 0.7
/
&IONS
/
&CELL
/

ATOMIC_SPECIES
Au 196.966569 	Au.pbe-n-kjpaw_psl.1.0.0.UPF

K_POINTS automatic
8 12 1  0 0 0

CELL_PARAMETERS angstrom
4.08000000000000 0.00000000000000 0.00000000000000
0.00000000000000 2.88499566724111 0.00000000000000
0.00000000000000 0.00000000000000 53.17745017327282

ATOMIC_POSITIONS angstrom
Au 2.0400000000 1.4424978336 10.0000000000 0 0 1
Au 0.0000000000 0.0000000000 11.4424978336 0 0 1
Au 2.0400000000 1.4424978336 12.8849956672 0 0 1
Au 0.0000000000 0.0000000000 14.3274935009 0 0 1
Au 2.0400000000 1.4424978336 15.7699913345 0 0 1
Au 0.0000000000 0.0000000000 17.2124891681 0 0 1
Au 2.0400000000 1.4424978336 18.6549870017 0 0 1
Au 0.0000000000 0.0000000000 20.0974848353 0 0 1
Au 2.0400000000 1.4424978336 21.5399826690 0 0 1
Au 0.0000000000 0.0000000000 22.9824805026 0 0 1
Au 2.0400000000 1.4424978336 24.4249783362 0 0 1
Au 0.0000000000 0.0000000000 25.8674761698 0 0 1
Au 2.0400000000 1.4424978336 27.3099740034 0 0 1
Au 0.0000000000 0.0000000000 28.7524718371 0 0 1
Au 2.0400000000 1.4424978336 30.1949696707 0 0 1
Au 0.0000000000 0.0000000000 31.6374675043 0 0 1
Au 2.0400000000 1.4424978336 33.0799653379 0 0 1
Au 0.0000000000 0.0000000000 34.5224631715 0 0 1
Au 2.0400000000 1.4424978336 35.9649610052 0 0 1
Au 0.0000000000 0.0000000000 37.4074588388 0 0 1
Au 2.0400000000 1.4424978336 38.8499566724 0 0 1
Au 0.0000000000 0.0000000000 40.2924545060 0 0 1
Au 2.0400000000 1.4424978336 41.7349523397 0 0 1
Au 0.0000000000 0.0000000000 43.1774501733 0 0 1

