&CONTROL
   tprnfor          = .true.
   disk_io          = 'low'
   pseudo_dir       = './'
/
&SYSTEM
   ecutwfc          = 50
   occupations      = 'smearing'
   degauss          = 0.2
   smearing         = 'gauss'
   ntyp             = 1
   nat              = 36
   ibrav            = 0
/
&ELECTRONS
   mixing_beta      = 0.1
/
&IONS
/
&CELL
/

ATOMIC_SPECIES
Au 196.966569 	Au.pbe-n-kjpaw_psl.1.0.0.UPF

K_POINTS automatic
8 12 1  0 0 0

CELL_PARAMETERS angstrom
2.88499566724111 0.00000000000000 0.00000000000000
0.00000000000000 4.99695907527768 0.00000000000000
0.00000000000000 0.00000000000000 60.04501467099244

ATOMIC_POSITIONS angstrom
Au 1.4424978336 0.8328265125 10.0000000000 
Au 0.0000000000 3.3313060502 10.0000000000 
Au 0.0000000000 1.6656530251 12.3555890983 
Au 1.4424978336 4.1641325627 12.3555890983 
Au 0.0000000000 0.0000000000 14.7111781966 
Au 1.4424978336 2.4984795376 14.7111781966 
Au 1.4424978336 0.8328265125 17.0667672949 
Au 0.0000000000 3.3313060502 17.0667672949 
Au 0.0000000000 1.6656530251 19.4223563932 
Au 1.4424978336 4.1641325627 19.4223563932 
Au 0.0000000000 0.0000000000 21.7779454915 
Au 1.4424978336 2.4984795376 21.7779454915 
Au 1.4424978336 0.8328265125 24.1335345898 
Au 0.0000000000 3.3313060502 24.1335345898 
Au 0.0000000000 1.6656530251 26.4891236881 
Au 1.4424978336 4.1641325627 26.4891236881 
Au 0.0000000000 0.0000000000 28.8447127863 
Au 1.4424978336 2.4984795376 28.8447127863 
Au 1.4424978336 0.8328265125 31.2003018846 
Au 0.0000000000 3.3313060502 31.2003018846 
Au 0.0000000000 1.6656530251 33.5558909829 
Au 1.4424978336 4.1641325627 33.5558909829 
Au 0.0000000000 0.0000000000 35.9114800812 
Au 1.4424978336 2.4984795376 35.9114800812 
Au 1.4424978336 0.8328265125 38.2670691795 
Au 0.0000000000 3.3313060502 38.2670691795 
Au 0.0000000000 1.6656530251 40.6226582778 
Au 1.4424978336 4.1641325627 40.6226582778 
Au 0.0000000000 0.0000000000 42.9782473761 
Au 1.4424978336 2.4984795376 42.9782473761 
Au 1.4424978336 0.8328265125 45.3338364744 
Au 0.0000000000 3.3313060502 45.3338364744 
Au 0.0000000000 1.6656530251 47.6894255727 
Au 1.4424978336 4.1641325627 47.6894255727 
Au 0.0000000000 0.0000000000 50.0450146710 
Au 1.4424978336 2.4984795376 50.0450146710 

