&CONTROL
   tprnfor          = .true.
   disk_io          = 'low'
   pseudo_dir       = './'
/
&SYSTEM
   ecutwfc          = 50
   occupations      = 'smearing'
   degauss          = 0.002
   smearing         = 'gauss'
   ntyp             = 1
   nat              = 2
   ibrav            = 0
/
&ELECTRONS
/
&IONS
/
&CELL
/

ATOMIC_SPECIES
Au 196.966569 Au.pbe-n-kjpaw_psl.1.0.0.UPF

K_POINTS automatic
12 12 12  0 0 0

CELL_PARAMETERS angstrom
6.259658 0.002648 0.003655
0.000294 6.227553 0.004857
0.00083 0.004277 6.252556

ATOMIC_POSITIONS angstrom
Au 0.00 0.00 0.00 
Au 3.124333554 3.124333554 3.124333554
 

