&control
calculation = 'scf',
prefix = 'gold',
pseudo_dir = './',
outdir = './',
tprnfor = .true.,
tstress = .true.
/
&system
ibrav =2,
celldm(1) = 7.1,
nat =4,
ntyp = 1,
ecutwfc =50,
occupations = 'smearing',
smearing = 'gaussian',
degauss = 0.02
/
&electrons
conv_thr = 1.0d-9,
/
&ions
/
&cell
/
ATOMIC_SPECIES
Au 196.96657 Au.pbe-n-kjpaw_psl.1.0.0.UPF
ATOMIC_POSITIONS  
Au 0.00 0.00 0.00
Au 0.00 0.25 0.25
Au 0.25 0.00 0.25
Au 0.25 0.25 0.00
 
K_POINTS automatic
60 60 60 0 0 0



