&CONTROL
   calculation      = 'relax'
   tprnfor          = .true.
   disk_io          = 'low'
   pseudo_dir       = './'
/
&SYSTEM
   ecutwfc          = 50
   occupations      = 'smearing'
   degauss          = 0.002
   smearing         = 'gauss'
   ntyp             = 1
   nat              = 26
   ibrav            = 0
   nosym            = .true.
/
&ELECTRONS
mixing_beta = 0.08
/
&IONS
/
&CELL
/

ATOMIC_SPECIES
Au 196.966569 	Au.pbe-n-kjpaw_psl.1.0.0.UPF

K_POINTS automatic
8 12 1  0 0 0

CELL_PARAMETERS angstrom
5.09915113450000 0.00000000000000 0.00000000000000
0.00000000000000 2.94399476050000 0.00000000000000
-0.00002350710000 0.00000000000000 38.84515762330000

ATOMIC_POSITIONS angstrom
Au 0.0000000000 0.0000000000 0.0000000000 0 0 1
Au 5.0991277561 1.4720000000 28.8451587017 0 0 1
Au 5.0991339819 1.4720000000 21.6338681730 0 0 1
Au 5.0991389889 0.0000000000 14.4225793509 0 0 1
Au 5.0991452147 0.0000000000 7.2112897049 0 0 1
Au 1.6997150733 0.0000000000 2.4037630192 0 0 1
Au 1.6996977676 1.4720000000 24.0376304861 0 0 1
Au 1.6997039934 1.4720000000 16.8263417228 0 0 1
Au 1.6997090005 0.0000000000 9.6150537833 0 0 1
Au 3.3994301414 0.0000000000 4.8075268622 0 0 1
Au 3.3994129888 1.4720000000 26.4413963887 0 0 1
Au 3.3994189086 1.4720000000 19.2301058012 0 0 1
Au 3.3994248284 0.0000000000 12.0188187443 0 0 1
Au 4.2492909414 1.4719970299 2.4037630192 0 0 1
Au 4.2492725751 2.9439970299 24.0376304861 0 0 1
Au 4.2492788009 2.9439970299 16.8263417228 0 0 1
Au 4.2492850215 1.4719970299 9.6150537833 0 0 1
Au 0.8498539674 1.4719970299 4.8075268622 0 0 1
Au 0.8498368147 2.9439970299 26.4413963887 0 0 1
Au 0.8498428875 2.9439970299 19.2301058012 0 0 1
Au 0.8498488838 1.4719970299 12.0188187443 0 0 1
Au 2.5495761740 1.4719970299 0.0000000000 0 0 1
Au 2.5495526478 2.9439970299 28.8451587017 0 0 1
Au 2.5495578078 2.9439970299 21.6338681730 0 0 1
Au 2.5495637276 1.4719970299 14.4225793509 0 0 1
Au 2.5495699534 1.4719970299 7.2112897049 0 0 1

