&CONTROL
   tprnfor          = .true.
   disk_io          = 'low'
   pseudo_dir       = './'
/
&SYSTEM
   ecutwfc          = 30
   ecutrho          = 120
   occupations      = 'smearing'
   degauss          = 0.002
   smearing         = 'gauss'
   ntyp             = 1
   nat              = 108
   ibrav            = 0
/
&ELECTRONS
/
&IONS
/
&CELL
/

ATOMIC_SPECIES
Au 196.966569 Au.pbe-n-kjpaw_psl.1.0.0.UPF 

K_POINTS gamma

CELL_PARAMETERS angstrom
12.24000000000000 0.00000000000000 0.00000000000000
0.00000000000000 12.24000000000000 0.00000000000000
0.00000000000000 0.00000000000000 12.24000000000000

ATOMIC_POSITIONS angstrom
Au 0.4775645910 0.0755830329 0.0539918539 
Au 2.2972578993 2.2051396392 0.1031014002 
Au 1.8657890594 0.1146710958 2.2095356200 
Au -0.1942856780 2.0244452783 1.8760998641 
Au 4.0026821785 -0.0950670639 -0.3198214744 
Au 6.0759684867 2.0427998882 0.0847863597 
Au 6.1196615329 -0.0896271975 2.0777697212 
Au 4.3275908622 1.7769040750 2.2654299269 
Au 7.9761351901 -0.0391550073 -0.1547419993 
Au 9.8683161231 2.0594889020 0.1454740379 
Au 10.2710261969 -0.2111510021 1.5959018557 
Au 7.8603264203 1.8543211527 2.0968446776 
Au -0.0819816832 4.0859836908 -0.1167370969 
Au 2.0533222897 5.9721753844 0.2755511031 
Au 1.6265283807 3.9802795733 2.0145711891 
Au -0.0115165134 6.1765556691 2.0673439125 
Au 3.8674150341 4.2430514076 0.3080922622 
Au 6.3490460039 6.2519252520 0.0145780421 
Au 5.9500274591 4.0401178610 2.0829356987 
Au 4.0440504629 6.1113366478 2.1291328117 
Au 8.1234412821 3.8593014806 0.0668670480 
Au 10.4920584695 6.2078027505 -0.0125787749 
Au 9.8595573722 4.4303812348 2.2987917871 
Au 8.1543470567 6.3540607242 1.8207842413 
Au 0.2678406296 8.1488739125 0.0114654820 
Au 2.0063854718 10.2103178194 -0.0500212372 
Au 2.6192090380 8.2319320081 1.9762427816 
Au 0.0367361436 10.0505072709 2.2145294936 
Au 4.2860015127 8.0057124006 0.0279961411 
Au 5.9540192798 10.4048325730 0.0384047317 
Au 6.0942625497 8.3368807596 2.0665208519 
Au 4.0324964486 10.4430131102 2.2128562713 
Au 8.4757444423 8.5946621565 -0.3162067749 
Au 10.4856987158 10.3660522822 -0.3202082455 
Au 10.1378997964 8.2182030605 1.9856273044 
Au 8.2313801978 10.3747997322 1.6812889253 
Au -0.2579684915 0.0966937170 4.0720583914 
Au 1.9616062875 2.0285558388 4.2684694224 
Au 1.8124608623 0.1078357925 6.2227704102 
Au -0.1289020360 2.0545614869 6.2388855631 
Au 4.1244939273 0.0347711899 4.4306013535 
Au 6.1236305227 2.3556152686 4.2157191057 
Au 6.3130384442 -0.0814896560 5.9459621745 
Au 4.1472671370 1.9623870427 6.1666109755 
Au 8.3727877582 -0.2219046062 4.0146931271 
Au 10.1834879208 2.0621769072 3.8810805186 
Au 10.0645821916 0.3247299745 6.1304643783 
Au 8.0998767638 2.1624485773 5.9490690411 
Au -0.1492566562 3.9978665290 4.1603081191 
Au 1.9284198780 6.1600482673 3.9635338805 
Au 2.0051048372 3.9242747226 6.2877767477 
Au 0.0548082541 5.7823528407 6.1235976724 
Au 3.4511284744 3.9457987954 3.7935952245 
Au 6.0389031961 6.1396525423 3.9630472090 
Au 6.1227241087 4.4290700172 6.2455286036 
Au 3.6350940734 6.0202132849 5.8303217295 
Au 7.9323191731 4.1989150431 4.0485244597 
Au 10.4311425672 6.4066835934 4.1404028905 
Au 10.0279659711 3.9276658002 5.9527471363 
Au 8.2579152262 6.2131071065 6.0710767836 
Au 0.1922599904 8.2143423325 4.2173526886 
Au 2.1147348710 10.0409901962 4.5515251842 
Au 2.1636406676 8.1712292192 6.2578477769 
Au -0.0560671553 10.1464649535 6.0180893069 
Au 4.2313030565 8.2430132601 4.2159673546 
Au 6.3543188278 10.0805216524 4.2607523290 
Au 6.1002757852 7.9390837310 6.2512111105 
Au 4.2951689814 9.8260120043 6.0721345628 
Au 8.0738060603 8.1499512128 3.8882891142 
Au 10.1487604817 10.0803744666 4.2033089977 
Au 10.2760201249 8.0546705193 5.9360376897 
Au 8.2780824780 10.2832176151 6.4026401115 
Au 0.0179036051 0.2184517922 8.5584116432 
Au 2.2320096547 2.0678547558 8.2205274146 
Au 2.2083267468 0.0824910947 10.0054766918 
Au 0.3744755172 2.0611416545 10.3620326414 
Au 4.1317283171 -0.2344897873 7.7442471032 
Au 6.2335075686 2.0954760047 8.0312519849 
Au 5.8789040028 -0.0219855096 10.1113106963 
Au 4.3553094873 2.2986321156 10.0439235210 
Au 8.0981230367 0.1416562833 8.0968281601 
Au 10.1456368410 2.0634905352 8.1196143674 
Au 10.2475729538 0.4168512389 10.3720096641 
Au 7.9679798601 1.9127510046 9.8836356653 
Au -0.0965759932 3.8471769312 8.0685292328 
Au 2.0356195649 6.0621777886 8.2713208313 
Au 2.0840892825 4.0141430281 10.2216541900 
Au 0.1925746584 5.9084914717 10.2339078307 
Au 4.1765180217 4.2911791242 7.9853497592 
Au 6.1861990983 6.1936181019 8.2679018560 
Au 5.9298243582 4.3354349162 10.3210096524 
Au 3.9726259161 6.0176563069 10.3700219101 
Au 8.0404097595 4.1068987811 8.3663641466 
Au 10.0949898142 6.1699398394 8.3749618772 
Au 10.3348576296 3.8419319631 10.2447163546 
Au 8.0777481547 6.1793894212 10.3687379940 
Au -0.1293490561 8.2262849680 8.1171620879 
Au 1.8536080883 10.1025987312 8.1011623775 
Au 2.0581623250 8.1200919458 10.3098361741 
Au 0.0266966839 10.2084196822 10.0647164741 
Au 4.0681831644 8.0244604048 8.1062531582 
Au 6.2180945428 10.1584187145 8.0706880363 
Au 5.9525245758 8.2987578668 10.1033165057 
Au 4.1018849380 10.0374390203 10.0513462639 
Au 8.1691479299 8.1330783915 8.1660196681 
Au 10.2925648468 10.2861279681 8.0378360677 
Au 10.4140300615 7.8912537494 10.3567644141 
Au 8.3543421551 10.3979823970 10.0147619586 

