&CONTROL
   tprnfor          = .true.
   disk_io          = 'low'
   pseudo_dir       = './'
/
&SYSTEM
   ecutwfc          = 30
   ecutrho          = 120
   occupations      = 'smearing'
   degauss          = 0.002
   smearing         = 'gauss'
   ntyp             = 1
   nat              = 108
   ibrav            = 0
/
&ELECTRONS
/
&IONS
/
&CELL
/

ATOMIC_SPECIES
Au 196.966569 Au.pbe-n-kjpaw_psl.1.0.0.UPF 

K_POINTS gamma

CELL_PARAMETERS angstrom
12.24000000000000 0.00000000000000 0.00000000000000
0.00000000000000 12.24000000000000 0.00000000000000
0.00000000000000 0.00000000000000 12.24000000000000

ATOMIC_POSITIONS angstrom
Au 0.1628453115 0.1987914542 -0.2346355701 
Au 1.8410274331 2.3269774598 -0.1440419918 
Au 2.1080569866 -0.2897913459 2.1143489906 
Au -0.0618574522 1.9918428159 2.0226410507 
Au 3.5423651668 0.3192352986 0.0479807364 
Au 6.0048058042 1.9984500635 0.4543671205 
Au 5.9714002810 -0.0956058769 2.4956830120 
Au 3.7420678975 2.2358319121 2.0930092184 
Au 7.9847910244 -0.0279127654 -0.1106756104 
Au 10.3759620128 1.9489729536 -0.1966891673 
Au 10.0557913397 -0.1918402913 1.6808073759 
Au 8.0571506582 1.7879709560 2.0993918006 
Au -0.1344597497 4.3153941417 0.0496804796 
Au 1.8987393045 6.0833217214 0.1492266519 
Au 1.6406089294 4.2264075007 2.2585300307 
Au -0.2798915205 6.1480350161 2.0484204020 
Au 3.7000169526 4.3061331975 0.1008567660 
Au 6.1507015491 6.0137696500 -0.0386686760 
Au 6.4229450898 3.9480188180 1.8712109086 
Au 3.8793425822 6.0527747660 2.1148076204 
Au 8.3446825684 4.0001814467 0.1764683989 
Au 10.1854907067 6.0033050402 0.0485938493 
Au 10.2129925335 4.0011286198 2.3268588564 
Au 7.9812225357 6.0246070455 2.0071762368 
Au 0.1215987194 8.2764516460 -0.0580089535 
Au 2.1977533671 10.0286046790 0.3488206135 
Au 1.7004871007 8.0786488115 2.0705460903 
Au 0.1328128377 10.3772302041 1.7278742386 
Au 4.0274474190 8.3804652374 -0.1849962398 
Au 6.1350265735 10.2009166688 -0.3359507439 
Au 5.8152087129 7.9524914017 2.1112880036 
Au 4.4299592369 10.2277196574 1.8449514788 
Au 8.0274558954 8.0615893714 -0.2208108640 
Au 10.1374317317 10.1164820098 -0.0796764044 
Au 9.9634841440 8.1071236715 2.0114617835 
Au 7.9958983999 10.1001439028 1.7382995484 
Au -0.0922991138 -0.1154140433 4.0189089878 
Au 1.7993725928 2.0111019861 4.2991932890 
Au 2.0642538859 -0.2820770855 6.0149062200 
Au -0.0602645296 1.9951664348 6.3464683255 
Au 3.8886871726 0.0793083845 4.0862390335 
Au 5.9812586542 1.9637587504 4.1056366237 
Au 6.1681688499 0.0424707674 6.1022262968 
Au 4.2057709409 2.1175378827 6.0512630867 
Au 8.4919417774 -0.0374062123 3.9295170627 
Au 10.3537058736 1.9582045386 4.0182711387 
Au 10.3063357435 0.0129061647 6.0098699556 
Au 8.2305322701 2.0448936667 5.8856286628 
Au -0.0278211428 3.8833902619 4.3116894180 
Au 1.8664212418 6.1362071581 4.1479853497 
Au 2.1458372792 3.8884994841 6.2970173617 
Au 0.1883226647 6.1877104319 5.9920482244 
Au 3.9898663396 3.9150680509 4.0780598906 
Au 6.0452678190 5.8597624652 4.1981565546 
Au 6.1144499070 4.0035656539 6.3905939660 
Au 3.9459415709 5.8370715135 6.0910269627 
Au 8.1545473807 4.1516615734 4.1344007581 
Au 10.1195948886 6.1077784374 4.2736713059 
Au 10.0994835666 4.0220314223 6.1767110923 
Au 8.3189674331 6.1569299737 6.2473830013 
Au -0.1418858117 8.1041326659 4.0548556249 
Au 2.0715132418 10.0848743468 4.0988716721 
Au 2.6549470333 8.5127171010 6.1916723404 
Au -0.0281369026 10.1581683525 5.8774786406 
Au 3.8022176253 7.8984129856 3.8386223800 
Au 6.4082783062 9.7387488118 4.0524384256 
Au 5.7056672375 8.0087184044 5.8440933879 
Au 4.3911691216 10.3933374041 5.7659886353 
Au 8.2858434150 8.2163088405 4.5938213480 
Au 10.2187923550 10.1441766140 3.8183797780 
Au 10.4375204522 8.0095819373 6.1739483581 
Au 7.9591284195 10.4870131906 6.2133974106 
Au 0.0277267734 -0.0910391631 8.2380246926 
Au 2.1137683460 1.9125004304 7.8784364445 
Au 2.0400245196 0.1185856551 10.0004231058 
Au -0.0233903873 1.8964982801 10.0906805964 
Au 4.1784623748 0.1835036944 8.2899713038 
Au 6.0458367015 1.9746331659 8.1776184371 
Au 5.9619103474 0.2747153168 10.3907119924 
Au 4.1510076548 2.3214975131 10.7018732973 
Au 8.4994944628 -0.1519767700 8.3519140178 
Au 9.7933674762 2.3156393714 8.2566558521 
Au 10.2948856654 -0.1098367800 10.3275533662 
Au 8.2789855383 2.2285065214 10.3352526133 
Au 0.0770230401 4.3376967385 7.9207460222 
Au 2.1826372499 6.3502879534 7.9680102679 
Au 2.1295760681 4.0622371136 10.0372551053 
Au 0.1558750161 6.1456199255 10.2172078703 
Au 3.9843781889 3.7634170010 8.3272155526 
Au 5.5751597953 6.0495793321 7.9500163972 
Au 6.2242782468 4.1841960952 10.1617416635 
Au 4.0112753616 6.1476900266 10.4275810055 
Au 7.9740353206 4.2038886792 8.3277428598 
Au 10.1140871682 6.3097124952 8.2469412996 
Au 10.6376019371 4.1996810081 10.1805557218 
Au 8.4003441936 6.0710328246 10.5218633922 
Au 0.2459950964 8.3353956949 8.1497221923 
Au 2.1532108336 10.2750197534 8.1415914104 
Au 2.1658206378 8.1540856129 9.9998452043 
Au -0.2307030549 10.3740727981 10.1916307961 
Au 4.2804728145 8.5473320916 8.3612252113 
Au 6.2822676796 10.4966587803 8.2064756318 
Au 6.0679460223 8.0969806244 10.0544925796 
Au 3.9280249734 10.5911317221 10.1594351748 
Au 7.8069443461 7.8614619157 8.1054523041 
Au 10.0612882308 10.1246752541 8.0774814814 
Au 10.3510251554 8.3137381213 10.2770267821 
Au 8.3068177514 9.9835837133 10.0816249426 

