&CONTROL
   tprnfor          = .true.
   disk_io          = 'low'
   pseudo_dir       = './'
/
&SYSTEM
   ecutwfc          = 30
   ecutrho          = 120
   occupations      = 'smearing'
   degauss          = 0.002
   smearing         = 'gauss'
   ntyp             = 1
   nat              = 108
   ibrav            = 0
/
&ELECTRONS
/
&IONS
/
&CELL
/

ATOMIC_SPECIES
Au 196.966569 Au.pbe-n-kjpaw_psl.1.0.0.UPF 

K_POINTS gamma

CELL_PARAMETERS angstrom
12.24000000000000 0.00000000000000 0.00000000000000
0.00000000000000 12.24000000000000 0.00000000000000
0.00000000000000 0.00000000000000 12.24000000000000

ATOMIC_POSITIONS angstrom
Au 0.2125855234 -0.4839854312 0.1613293251 
Au 2.3080387344 1.8063397492 0.2277937977 
Au 2.0739573483 -0.0796821098 2.1995187796 
Au 0.1498821072 1.8063694838 1.7351773295 
Au 4.0439744531 -0.3967081537 0.0705385633 
Au 6.1587882788 1.8750051172 -0.1560276528 
Au 6.0877151975 -0.1160143008 2.1319371270 
Au 4.2535345241 2.1015582116 2.0392307576 
Au 8.2924900438 0.3128033657 0.1128422750 
Au 10.4559260951 2.0171690531 -0.0918942078 
Au 9.9702667139 0.0305740988 2.1034731617 
Au 7.9595162645 1.9358305827 2.1706849962 
Au 0.1973489593 4.0756186952 -0.0818853139 
Au 1.7364238985 6.2009944102 -0.0964071518 
Au 1.8504209185 4.1156719975 2.0695890984 
Au -0.2214468977 6.1339163463 2.0371673945 
Au 3.7536308897 4.1901816964 0.0221664884 
Au 5.9768941857 6.1935655931 0.0869605647 
Au 5.9778129789 3.9629566379 1.5972891220 
Au 3.9433894495 5.9671716196 1.9629270526 
Au 8.4356003267 3.8083749958 0.3019631514 
Au 10.3341913023 5.8912369296 -0.2085939346 
Au 10.3453624223 4.2362689794 1.9799856576 
Au 8.1257237568 5.9561355061 1.8952365114 
Au 0.0465882474 8.2676290999 0.1720218075 
Au 2.0912089189 9.6693444503 0.4000405039 
Au 2.2971097640 7.8572914282 2.2097590189 
Au -0.0541022916 10.0432257721 2.1077315012 
Au 4.1599802336 7.9150392264 0.1980632840 
Au 6.3387812172 10.1552153018 0.1153069737 
Au 6.6167116948 8.1527595193 1.9382944429 
Au 4.0150292839 10.0246844337 2.4255681189 
Au 8.5372284152 7.9773296282 -0.2931656864 
Au 10.3942598784 10.0110152120 -0.0308417325 
Au 9.9214123173 7.9840364284 1.7620467588 
Au 8.1180039637 10.4568628686 2.0214368797 
Au -0.2128375770 0.2018241439 3.8031023348 
Au 2.0659340489 1.7395395112 4.0244398078 
Au 2.1886425416 -0.0248491234 5.9227552217 
Au -0.0656882977 2.2687984824 5.7688517798 
Au 4.2540579523 0.1072588549 4.1504541784 
Au 6.0148617305 2.2568947267 4.2362651599 
Au 6.0039885599 0.0190036185 6.2540645598 
Au 3.9632785159 2.1298072484 6.0489237528 
Au 7.9211023360 0.1139881642 4.3414443980 
Au 10.0241094265 1.8799328702 3.8601190123 
Au 10.1076512743 0.0975876517 6.4268228486 
Au 8.1077888464 1.8988563651 6.3080251637 
Au -0.1433945641 4.2072372223 3.8301795903 
Au 2.1306504103 6.0476518848 4.1623112688 
Au 2.0882819705 4.1033438517 6.0699080646 
Au -0.0589420263 6.3999159636 5.9361830885 
Au 4.2234438262 4.1013780867 3.9719339432 
Au 6.3182861670 5.9848989997 3.9514214110 
Au 6.2831947366 4.1856722840 6.0849955189 
Au 4.2196205022 5.8951653911 6.2164299649 
Au 8.2969338562 4.0668424784 4.0877521086 
Au 10.0518197652 6.1339980717 3.9543905076 
Au 10.2865132323 4.4362207804 5.9414302353 
Au 8.1663901287 6.3871775870 6.2320856114 
Au -0.2958494131 8.2670658409 3.9308880821 
Au 1.8097014765 9.9352030210 4.0603264666 
Au 2.1278690112 8.0645018750 6.0712267417 
Au -0.2607851238 10.5396164839 5.8925600013 
Au 4.3857289620 7.8350026827 4.1660568818 
Au 6.1511222523 10.2805046319 4.0427369314 
Au 6.0695865138 7.9465671097 6.3500437595 
Au 4.3593865839 10.0373901437 6.0640067363 
Au 8.0280731256 8.3533175789 4.4935868807 
Au 9.9150974870 10.3256439505 3.8986609595 
Au 10.1496940650 8.3441673898 6.4629101724 
Au 8.0039241137 10.4788870485 6.2357672670 
Au 0.2985032417 -0.0566343669 7.9774685777 
Au 2.2859305451 1.8274721589 8.0286546913 
Au 2.2682024822 -0.1859871499 10.0622999352 
Au 0.3507104316 1.9440495670 10.0032618486 
Au 4.3468573810 -0.0766070782 7.8680901063 
Au 5.8404928445 2.4799509858 8.1096667900 
Au 5.9384764045 -0.2216254812 10.5563995844 
Au 4.0162160123 1.9854821714 10.4256965141 
Au 8.0922962572 -0.3026913713 8.4375110950 
Au 10.3877867275 2.3672619541 7.7289848765 
Au 10.3765082746 0.4410273800 9.8172143880 
Au 8.0941105356 1.9406045897 9.9832134200 
Au 0.1574912327 3.9135767945 8.2360657143 
Au 1.9685952159 6.0817600298 7.9337207393 
Au 1.9149132221 4.2337866434 10.2027338963 
Au -0.0119920963 6.1857893353 10.2155051471 
Au 3.8147704544 4.3164219335 8.4105752898 
Au 5.8968404803 6.1294200815 8.4532040467 
Au 5.8180789669 4.1429960412 10.3414379716 
Au 3.7833714927 6.3738258236 10.2768107016 
Au 8.1517431815 3.9049173268 8.1812276376 
Au 10.2641492043 6.0324659298 8.2676690043 
Au 10.4037531044 3.8787682113 10.0639897487 
Au 8.0981141337 5.6567247490 10.3410207778 
Au 0.0920894231 8.3716749697 7.7581060142 
Au 2.0740183924 10.2766765195 7.7394021643 
Au 1.7148688347 8.2323289239 10.0941567939 
Au 0.1172631911 10.3450922724 10.1745627850 
Au 3.8625592757 8.4307543606 8.3583924885 
Au 5.9492889896 10.1129475256 8.5361335898 
Au 6.4045325013 7.9151602918 10.1954546261 
Au 3.8742303595 10.0003531313 10.4542749685 
Au 8.1498879698 8.4000847760 8.2284538396 
Au 10.3495652419 10.4262509228 8.1073762109 
Au 10.4337035149 8.4450536915 9.9195308182 
Au 8.2695379477 10.5090864754 10.6535196857 

