&CONTROL
   tprnfor          = .true.
   disk_io          = 'low'
   pseudo_dir       = './'
/
&SYSTEM
   ecutwfc          = 50
   occupations      = 'smearing'
   degauss          = 0.02
   smearing         = 'gauss'
   ntyp             = 1
   nat              = 28
   ibrav            = 0
/
&ELECTRONS
   mixing_beta      = 0.1
/
&IONS
/
&CELL
/

ATOMIC_SPECIES
Au 196.966569 	Au.pbe-n-kjpaw_psl.1.0.0.UPF

K_POINTS automatic
8 12 1  0 0 0

CELL_PARAMETERS angstrom
4.08000000000000 0.00000000000000 0.00000000000000
0.00000000000000 5.76999133448223 0.00000000000000
0.00000000000000 0.00000000000000 18.75247183706724

ATOMIC_POSITIONS angstrom
Au 2.0400000000 1.4424978336 0.0000000000 
Au 2.0400000000 4.3274935009 0.0000000000 
Au 0.0000000000 0.0000000000 1.4424978336 
Au 0.0000000000 2.8849956672 1.4424978336 
Au 2.0400000000 1.4424978336 2.8849956672 
Au 2.0400000000 4.3274935009 2.8849956672 
Au 0.0000000000 0.0000000000 4.3274935009 
Au 0.0000000000 2.8849956672 4.3274935009 
Au 2.0400000000 1.4424978336 5.7699913345 
Au 2.0400000000 4.3274935009 5.7699913345 
Au 0.0000000000 0.0000000000 7.2124891681 
Au 0.0000000000 2.8849956672 7.2124891681 
Au 2.0400000000 1.4424978336 8.6549870017 
Au 2.0400000000 4.3274935009 8.6549870017 
Au 0.0000000000 0.0000000000 10.0974848353 
Au 0.0000000000 2.8849956672 10.0974848353 
Au 2.6520000000 1.4424978336 11.5399826690 
Au 2.6520000000 4.3274935009 11.5399826690 
Au 0.6120000000 0.0000000000 12.9824805026 
Au 0.6120000000 2.8849956672 12.9824805026 
Au 2.6520000000 1.4424978336 14.4249783362 
Au 2.6520000000 4.3274935009 14.4249783362 
Au 0.6120000000 0.0000000000 15.8674761698 
Au 0.6120000000 2.8849956672 15.8674761698 
Au 2.6520000000 1.4424978336 17.3099740034 
Au 2.6520000000 4.3274935009 17.3099740034 
Au 0.6120000000 0.0000000000 18.7524718371 
Au 0.6120000000 2.8849956672 18.7524718371 

