&CONTROL
   calculation      = 'relax'
   tprnfor          = .true.
   disk_io          = 'low'
   pseudo_dir       = './'
/
&SYSTEM
   ecutwfc          = 50
   ecutrho          = 300
   occupations      = 'smearing'
   degauss          = 0.008
   smearing         = 'gauss'
   ntyp             = 1
   nat              = 28
   ibrav            = 0
   nosym            = .true. 
/
&ELECTRONS
   mixing_beta      = 0.008
/
&IONS
/
&CELL
/

ATOMIC_SPECIES
Au 196.966569 	Au.pbe-n-kjpaw_psl.1.0.0.UPF

K_POINTS automatic
8 12 1  0 0 0

CELL_PARAMETERS angstrom
4.08000000000000 0.00000000000000 0.00000000000000
0.00000000000000 5.76999133448223 0.00000000000000
0.00000000000000 0.00000000000000 18.75247183706724

ATOMIC_POSITIONS angstrom
Au 2.0400000000 1.4424978336 0.0000000000 0 0 1
Au 2.0400000000 4.3274935009 0.0000000000 0 0 1
Au 0.0000000000 0.0000000000 1.4424978336 0 0 1
Au 0.0000000000 2.8849956672 1.4424978336 0 0 1
Au 2.0400000000 1.4424978336 2.8849956672 0 0 1
Au 2.0400000000 4.3274935009 2.8849956672 0 0 1
Au 0.0000000000 0.0000000000 4.3274935009 0 0 1
Au 0.0000000000 2.8849956672 4.3274935009 0 0 1
Au 2.0400000000 1.4424978336 5.7699913345 0 0 1
Au 2.0400000000 4.3274935009 5.7699913345 0 0 1
Au 0.0000000000 0.0000000000 7.2124891681 0 0 1
Au 0.0000000000 2.8849956672 7.2124891681 0 0 1
Au 2.0400000000 1.4424978336 8.6549870017 0 0 1
Au 2.0400000000 4.3274935009 8.6549870017 0 0 1
Au 0.0000000000 0.0000000000 10.0974848353 0 0 1
Au 0.0000000000 2.8849956672 10.0974848353 0 0 1
Au 2.4480000000 1.4424978336 11.5399826690 0 0 1
Au 2.4480000000 4.3274935009 11.5399826690 0 0 1
Au 0.4080000000 0.0000000000 12.9824805026 0 0 1
Au 0.4080000000 2.8849956672 12.9824805026 0 0 1
Au 2.4480000000 1.4424978336 14.4249783362 0 0 1
Au 2.4480000000 4.3274935009 14.4249783362 0 0 1
Au 0.4080000000 0.0000000000 15.8674761698 0 0 1
Au 0.4080000000 2.8849956672 15.8674761698 0 0 1
Au 2.4480000000 1.4424978336 17.3099740034 0 0 1
Au 2.4480000000 4.3274935009 17.3099740034 0 0 1
Au 0.4080000000 0.0000000000 18.7524718371 0 0 1
Au 0.4080000000 2.8849956672 18.7524718371 0 0 1

