&control
calculation = 'scf',
prefix = 'gold',
pseudo_dir = './',
outdir = './',
tprnfor = .true.,
tstress = .true.
/
&system
ibrav = 0,
nosym = .true. ,
nat = 4,
ntyp = 1,
ecutwfc = 60,
occupations = 'smearing',
smearing = 'gaussian',
degauss = 0.02
/
&electrons
conv_thr = 1.0d-9
/
ATOMIC_SPECIES
Au 196.96657 Au.UPF

CELL_PARAMETERS {bohr}
6.8 0.00 0.00
0.00 6.8 0.00
0.00 0.00 6.8

ATOMIC_POSITIONS {crystal}
Au 0.00 0.00 0.00
Au 0.50 0.50 0.00
Au 0.50 0.00 0.50
Au 0.00 0.50 0.50

K_POINTS automatic
12 12 12 0 0 0
