&control
calculation = 'scf',
prefix = 'gold',
pseudo_dir = './',
outdir = './',
tprnfor = .true.,
tstress = .true.
/
&system
ibrav = 0,
nosym = .true. ,
nat = 40,
ntyp = 1,
ecutwfc = 80,
occupations = 'smearing',
smearing = 'gaussian',
degauss = 0.02
/

&electrons
conv_thr = 1.0d-8
/
ATOMIC_SPECIES
Au 196.96657 Au.UPF

CELL_PARAMETERS {bohr}
44.5067482951 0.0 0.0
0.0 11.1266870737651 0.0
0.0 0.0 15.735511764

ATOMIC_POSITIONS {crystal}
Au 0.00 0.00 0.00
Au 0.0625 0.25 0.25
Au 0.125 0.00 0.00
Au 0.1875 0.25 0.25
Au 0.25 0.00 0.00
Au 0.3125 0.25 0.25
Au 0.375 0.00 0.00
Au 0.4375 0.25 0.25
Au 0.5 0.00 0.00
Au 0.5625 0.25 0.25

Au 0.00 0.50 0.00
Au 0.0625 0.75 0.25
Au 0.125 0.50 0.00
Au 0.1875 0.75 0.25
Au 0.25 0.50 0.00
Au 0.3125 0.75 0.25
Au 0.375 0.50 0.00
Au 0.4375 0.75 0.25
Au 0.5 0.50 0.00
Au 0.5625 0.75 0.25

Au 0.00 0.00 0.50
Au 0.0625 0.25 0.75
Au 0.125 0.00 0.50
Au 0.1875 0.25 0.75
Au 0.25 0.00 0.50
Au 0.3125 0.25 0.75
Au 0.375 0.00 0.50
Au 0.4375 0.25 0.75
Au 0.5 0.00 0.50
Au 0.5625 0.25 0.75

Au 0.00 0.50 0.50
Au 0.0625 0.75 0.75
Au 0.125 0.50 0.50
Au 0.1875 0.75 0.75
Au 0.25 0.50 0.50
Au 0.3125 0.75 0.75
Au 0.375 0.50 0.50
Au 0.4375 0.75 0.75
Au 0.5 0.50 0.50
Au 0.5625 0.75 0.75

K_POINTS automatic
3 12 9 0 0 0
