&control
calculation = 'scf',
prefix = 'gold',
pseudo_dir = './',
outdir = './',
tprnfor = .true.,
tstress = .true.
/
&system
ibrav = 0,
nosym = .true. ,
nat = 48,
ntyp = 1,
ecutwfc = 80,
occupations = 'smearing',
smearing = 'gaussian',
degauss = 0.02
/
&electrons
conv_thr = 1.0d-8
/
ATOMIC_SPECIES
Au 196.96657 Au.UPF

CELL_PARAMETERS {bohr}
15.735511764 0.0 0.0
0.0 7.867755882 0.0
0.0 0.0 94.413070584

ATOMIC_POSITIONS {crystal}
Au 0.00 0.00 0.000000
Au 0.25 0.50 0.000000
Au 0.00 0.50 0.041666
Au 0.25 0.00 0.041666
Au 0.00 0.00 0.083333
Au 0.25 0.50 0.083333
Au 0.00 0.50 0.125000
Au 0.25 0.00 0.125000
Au 0.00 0.00 0.166666
Au 0.25 0.50 0.166666
Au 0.00 0.50 0.208333
Au 0.25 0.00 0.208333
Au 0.00 0.00 0.250000
Au 0.25 0.50 0.250000
Au 0.00 0.50 0.291666
Au 0.25 0.00 0.291666
Au 0.00 0.00 0.333333
Au 0.25 0.50 0.333333
Au 0.00 0.50 0.375000
Au 0.25 0.00 0.375000
Au 0.00 0.00 0.416666
Au 0.25 0.50 0.416666
Au 0.00 0.50 0.458333
Au 0.25 0.00 0.458333
Au 0.50 0.00 0.000000
Au 0.75 0.50 0.000000
Au 0.50 0.50 0.041666
Au 0.75 0.00 0.041666
Au 0.50 0.00 0.083333
Au 0.75 0.50 0.083333
Au 0.50 0.50 0.125000
Au 0.75 0.00 0.125000
Au 0.50 0.00 0.166666
Au 0.75 0.50 0.166666
Au 0.50 0.50 0.208333
Au 0.75 0.00 0.208333
Au 0.50 0.00 0.250000
Au 0.75 0.50 0.250000
Au 0.50 0.50 0.291666
Au 0.75 0.00 0.291666
Au 0.50 0.00 0.333333
Au 0.75 0.50 0.333333
Au 0.50 0.50 0.375000
Au 0.75 0.00 0.375000
Au 0.50 0.00 0.416666
Au 0.75 0.50 0.416666
Au 0.50 0.50 0.458333
Au 0.75 0.00 0.458333

K_POINTS automatic
9 18 2 0 0 0
