&CONTROL
   tprnfor          = .true.
   disk_io          = 'low'
   pseudo_dir       = './'
/
&SYSTEM
   ecutwfc          = 50
   occupations      = 'smearing'
   degauss          = 0.002
   smearing         = 'gauss'
   ntyp             = 1
   nat              = 48
   ibrav            = 0
/
&ELECTRONS
/
&IONS
/
&CELL
/

ATOMIC_SPECIES
Au 196.966569 	Au.pbe-n-kjpaw_psl.1.0.0.UPF

K_POINTS automatic
5 5 5  0 0 0

CELL_PARAMETERS angstrom
8.3842929 0.00000000000000 0.00000000000000
0.00000000000000 8.3842929 0.00000000000000
0.00000000000000 0.00000000000000 12.51387000000000

ATOMIC_POSITIONS angstrom
Au 0.0000000000 0.0000000000 0.0000000000 
Au 2.0815359909 2.0871057630 0.0000000000 
Au 2.0871084396 0.0000000000 2.0883456790 
Au 0.0000000000 2.0847155984 2.0867435990 
Au 4.1673112048 0.0000000000 0.0000000000 
Au 6.2334976140 2.0818073144 0.0000000000 
Au 6.2542933754 0.0000000000 2.0881026554 
Au 4.1652012670 2.0919136838 2.0878302184 
Au 0.0000000000 4.1844130408 0.0000000000 
Au 2.0790676004 6.2746904475 0.0000000000 
Au 2.0873296923 4.1683032850 2.0891695272 
Au 0.0000000000 6.2701238238 2.0787449946 
Au 4.1578615792 4.1509151658 0.0000000000 
Au 6.2552845420 6.2274426397 0.0000000000 
Au 6.2291175573 4.1904462982 2.0822236996 
Au 4.1683052424 6.2484810851 2.0836887846 
Au 0.0000000000 0.0000000000 4.1822749673 
Au 2.0916820680 2.0833021025 4.1517779264 
Au 2.0851330778 0.0000000000 6.2420899290 
Au 0.0000000000 2.0842467280 6.2561690240 
Au 4.1515134417 0.0000000000 4.1876391293 
Au 6.2746598321 2.0864291442 4.1770080832 
Au 6.2399168491 0.0000000000 6.2531119718 
Au 4.1820383672 2.0913907786 6.2803058307 
Au 0.0000000000 4.1844357777 4.1905808728 
Au 2.0754414248 6.2472123576 4.1804794168 
Au 2.0924008485 4.1574359469 6.2564517274 
Au 0.0000000000 6.2875646679 6.2524158849 
Au 4.1853277450 4.1879121344 4.1608264163 
Au 6.2745781233 6.2807910092 4.1523392927 
Au 6.2359356347 4.1819993882 6.2513433493 
Au 4.1751095618 6.2878057875 6.2670650635 
Au 0.0000000000 0.0000000000 8.3636830299 
Au 2.0770510810 2.0862189555 8.3837804041 
Au 2.0883779360 0.0000000000 10.3860647466 
Au 0.0000000000 2.0780960449 10.4177172643 
Au 4.1608091544 0.0000000000 8.3556903148 
Au 6.2579970672 2.0783484470 8.3499574693 
Au 6.2556795619 0.0000000000 10.4309347710 
Au 4.1861677960 2.0851495920 10.4354012621 
Au 0.0000000000 4.1890135578 8.3402790617 
Au 2.0764687818 6.2578569656 8.3709526540 
Au 2.0957422878 4.1523092157 10.4489939924 
Au 0.0000000000 6.2794034921 10.3953325190 
Au 4.1566112789 4.1900020526 8.3630187185 
Au 6.2354698506 6.2761349343 8.3295512249 
Au 6.2476000077 4.1706735685 10.4473321615 
Au 4.1758096295 6.2397824292 10.4156024981 

