&CONTROL
   tprnfor          = .true.
   disk_io          = 'low'
   pseudo_dir       = './'
/
&SYSTEM
   ecutwfc          = 50
   occupations      = 'smearing'
   degauss          = 0.002
   smearing         = 'gauss'
   ntyp             = 1
   nat              = 48
   ibrav            = 0
/
&ELECTRONS
/
&IONS
/
&CELL
/

ATOMIC_SPECIES
Au 196.966569 	Au.pbe-n-kjpaw_psl.1.0.0.UPF

K_POINTS automatic
5 5 5  0 0 0

CELL_PARAMETERS angstrom
8.34258000000000 0.00000000000000 0.00000000000000
0.00000000000000 8.34258000000000 0.00000000000000
0.00000000000000 0.00000000000000 12.51387000000000

ATOMIC_POSITIONS angstrom
Au 0.0000000000 0.0000000000 0.0000000000 
Au 2.0774003544 2.0768513620 0.0000000000 
Au 2.0880148682 0.0000000000 2.0902758961 
Au 0.0000000000 2.0774226367 2.0890797479 
Au 4.1513723129 0.0000000000 0.0000000000 
Au 6.2647554929 2.0786459288 0.0000000000 
Au 6.2339408845 0.0000000000 2.0938869057 
Au 4.1838709405 2.0767711162 2.0909125165 
Au 0.0000000000 4.1849601204 0.0000000000 
Au 2.0800436569 6.2544583290 0.0000000000 
Au 2.0758555884 4.1870671706 2.0951971442 
Au 0.0000000000 6.2263663768 2.0813341493 
Au 4.1856182682 4.1552105510 0.0000000000 
Au 6.2319676459 6.2778068320 0.0000000000 
Au 6.2484795749 4.1883074801 2.0781169781 
Au 4.1708111535 6.2830029168 2.0833168986 
Au 0.0000000000 0.0000000000 4.1775511678 
Au 2.0758356962 2.0839500289 4.1717866727 
Au 2.0849964918 0.0000000000 6.2614457047 
Au 0.0000000000 2.0801789766 6.2766754444 
Au 4.1846898105 0.0000000000 4.1753759162 
Au 6.2570170478 2.0845894815 4.1845845103 
Au 6.2466212899 0.0000000000 6.2509700775 
Au 4.1758930667 2.0829714898 6.2695455753 
Au 0.0000000000 4.1837680828 4.1658350867 
Au 2.0893563859 6.2623904099 4.1608032673 
Au 2.0776349266 4.1911151009 6.2533791622 
Au 0.0000000000 6.2309063503 6.2582443463 
Au 4.1519367888 4.1747056709 4.1819997602 
Au 6.2857779548 6.2641560868 4.1536842829 
Au 6.2260308920 4.1917881960 6.2851122593 
Au 4.1681271833 6.2294516420 6.2567926568 
Au 0.0000000000 0.0000000000 8.3145925992 
Au 2.0929108660 2.0832362057 8.3010588408 
Au 2.0830228390 0.0000000000 10.3796563127 
Au 0.0000000000 2.0907898432 10.3856652566 
Au 4.1673412752 0.0000000000 8.3802046600 
Au 6.2819689059 2.0865392781 8.3762258377 
Au 6.2439849514 0.0000000000 10.3903055929 
Au 4.1863218317 2.0956597346 10.4210752608 
Au 0.0000000000 4.1835409066 8.3237044391 
Au 2.0932622432 6.2532649221 8.3237559246 
Au 2.0885495986 4.1776706478 10.4119591487 
Au 0.0000000000 6.2387829262 10.4478392825 
Au 4.1826550274 4.1760977121 8.3171416692 
Au 6.2658415262 6.2410765980 8.3045828686 
Au 6.2628338050 4.1813695157 10.4324025895 
Au 4.1597827155 6.2609509730 10.3827593319 

