&CONTROL
   tprnfor          = .true.
   disk_io          = 'low'
   pseudo_dir       = './'
/
&SYSTEM
   ecutwfc          = 50
   occupations      = 'smearing'
   degauss          = 0.002
   smearing         = 'gauss'
   ntyp             = 1
   nat              = 48
   ibrav            = 0
/
&ELECTRONS
/
&IONS
/
&CELL
/

ATOMIC_SPECIES
Au 196.966569 	Au.pbe-n-kjpaw_psl.1.0.0.UPF

K_POINTS automatic
5 5 5  0 0 0

CELL_PARAMETERS angstrom
8.34258000000000 0.00000000000000 0.00000000000000
0.00000000000000 8.34258000000000 0.00000000000000
0.00000000000000 0.00000000000000 12.51387000000000

ATOMIC_POSITIONS angstrom
Au 0.0000000000 0.0000000000 0.0000000000 
Au 2.0927103225 2.0832581672 0.0000000000 
Au 2.0846973232 0.0000000000 2.0944708377 
Au 0.0000000000 2.0771676856 2.0836247748 
Au 4.1865240949 0.0000000000 0.0000000000 
Au 6.2363955897 2.0754977740 0.0000000000 
Au 6.2708634142 0.0000000000 2.0952817848 
Au 4.1748526423 2.0833815146 2.0880399420 
Au 0.0000000000 4.1731762581 0.0000000000 
Au 2.0827038634 6.2274696174 0.0000000000 
Au 2.0821820021 4.1879548503 2.0853073913 
Au 0.0000000000 6.2494459877 2.0955085059 
Au 4.1615073391 4.1630063100 0.0000000000 
Au 6.2451754041 6.2666240124 0.0000000000 
Au 6.2465256485 4.1700129651 2.0956532011 
Au 4.1532501106 6.2591349190 2.0878036235 
Au 0.0000000000 0.0000000000 4.1818029878 
Au 2.0861272969 2.0803171682 4.1741432254 
Au 2.0826504754 0.0000000000 6.2387578947 
Au 0.0000000000 2.0862006430 6.2705044179 
Au 4.1648234109 0.0000000000 4.1572017583 
Au 6.2350794914 2.0807339326 4.1789074939 
Au 6.2525595054 0.0000000000 6.2833151725 
Au 4.1916084986 2.0869612541 6.2463167455 
Au 0.0000000000 4.1728023903 4.1607087368 
Au 2.0885685426 6.2455192206 4.1518430528 
Au 2.0763544386 4.1506282606 6.2801448418 
Au 0.0000000000 6.2350169746 6.2631220547 
Au 4.1902545219 4.1877309664 4.1650158083 
Au 6.2520401132 6.2320183637 4.1839477673 
Au 6.2613021708 4.1643430235 6.2824012651 
Au 4.1744407943 6.2385377958 6.2367968997 
Au 0.0000000000 0.0000000000 8.3649069432 
Au 2.0812212487 2.0837042989 8.3358286677 
Au 2.0786413527 0.0000000000 10.4224118966 
Au 0.0000000000 2.0944211530 10.3810323966 
Au 4.1856860582 0.0000000000 8.3089322886 
Au 6.2394635802 2.0828528036 8.3231564377 
Au 6.2297178004 0.0000000000 10.4722771777 
Au 4.1629350089 2.0852435083 10.4652862448 
Au 0.0000000000 4.1560163731 8.3719679238 
Au 2.0766200347 6.2738627553 8.3286117978 
Au 2.0878796804 4.1901332659 10.4289652218 
Au 0.0000000000 6.2721643973 10.3989896303 
Au 4.1532206151 4.1885452815 8.3072357997 
Au 6.2649734698 6.2367605019 8.3211429033 
Au 6.2557820782 4.1598653272 10.3839405471 
Au 4.1846457286 6.2459219524 10.4343410830 

