&CONTROL
   tprnfor          = .true.
   disk_io          = 'low'
   pseudo_dir       = './'
/
&SYSTEM
   ecutwfc          = 50
   occupations      = 'smearing'
   degauss          = 0.002
   smearing         = 'gauss'
   ntyp             = 1
   nat              = 48
   ibrav            = 0
/
&ELECTRONS
/
&IONS
/
&CELL
/

ATOMIC_SPECIES
Au 196.966569 	Au.pbe-n-kjpaw_psl.1.0.0.UPF

K_POINTS automatic
5 5 5  0 0 0

CELL_PARAMETERS angstrom
8.34258000000000 0.00000000000000 0.00000000000000
0.00000000000000 8.34258000000000 0.00000000000000
0.00000000000000 0.00000000000000 12.51387000000000

ATOMIC_POSITIONS angstrom
Au 0.0000000000 0.0000000000 0.0000000000 
Au 2.0781286054 2.0901529341 0.0000000000 
Au 2.0897593384 0.0000000000 2.0848192095 
Au 0.0000000000 2.0939196806 2.0834158527 
Au 4.1687940511 0.0000000000 0.0000000000 
Au 6.2777001180 2.0798703817 0.0000000000 
Au 6.2695687156 0.0000000000 2.0834994477 
Au 4.1905945940 2.0867132770 2.0902196061 
Au 0.0000000000 4.1646462679 0.0000000000 
Au 2.0784647540 6.2717473590 0.0000000000 
Au 2.0950191732 4.1683339581 2.0909556365 
Au 0.0000000000 6.2411186208 2.0892889121 
Au 4.1548242858 4.1895877293 0.0000000000 
Au 6.2432333317 6.2844402472 0.0000000000 
Au 6.2546003487 4.1754486336 2.0815970119 
Au 4.1585536467 6.2533464059 2.0954577385 
Au 0.0000000000 0.0000000000 4.1789887708 
Au 2.0907306790 2.0937277132 4.1723898581 
Au 2.0920782019 0.0000000000 6.2405488613 
Au 0.0000000000 2.0831805947 6.2545947046 
Au 4.1675216325 0.0000000000 4.1684414854 
Au 6.2437879996 2.0814510752 4.1632048506 
Au 6.2618507083 0.0000000000 6.2354578579 
Au 4.1584453973 2.0855091789 6.2556855503 
Au 0.0000000000 4.1671678766 4.1896864224 
Au 2.0827596496 6.2662811684 4.1678711678 
Au 2.0900429904 4.1526642906 6.2572436518 
Au 0.0000000000 6.2277410295 6.2314023006 
Au 4.1512002720 4.1527591205 4.1703589023 
Au 6.2298562569 6.2690388155 4.1814183358 
Au 6.2301421114 4.1701675022 6.2846249916 
Au 4.1674862768 6.2645074764 6.2661629246 
Au 0.0000000000 0.0000000000 8.3021719229 
Au 2.0897807715 2.0937446411 8.3191147317 
Au 2.0884576981 0.0000000000 10.3942949601 
Au 0.0000000000 2.0915332414 10.4252577604 
Au 4.1595493064 0.0000000000 8.3432043508 
Au 6.2853613800 2.0843300014 8.3195176418 
Au 6.2282614929 0.0000000000 10.3956297631 
Au 4.1679954494 2.0892336767 10.4195055132 
Au 0.0000000000 4.1623860917 8.3336187081 
Au 2.0921930843 6.2811611010 8.3705400720 
Au 2.0937649340 4.1846148157 10.4290748906 
Au 0.0000000000 6.2302901704 10.4043823904 
Au 4.1519472833 4.1833736606 8.3167409457 
Au 6.2764494698 6.2537877825 8.3573014338 
Au 6.2501550550 4.1560620345 10.3964742067 
Au 4.1616416161 6.2410390849 10.4557013370 

