&CONTROL
   tprnfor          = .true.
   disk_io          = 'low'
   pseudo_dir       = './'
/
&SYSTEM
   ecutwfc          = 50
   occupations      = 'smearing'
   degauss          = 0.002
   smearing         = 'gauss'
   ntyp             = 1
   nat              = 48
   ibrav            = 0
/
&ELECTRONS
/
&IONS
/
&CELL
/

ATOMIC_SPECIES
Au 196.966569 	Au.pbe-n-kjpaw_psl.1.0.0.UPF

K_POINTS automatic
5 5 5  0 0 0

CELL_PARAMETERS angstrom
8.3842929 0.00000000000000 0.00000000000000
0.00000000000000 8.3842929 0.00000000000000
0.00000000000000 0.00000000000000 12.51387000000000

ATOMIC_POSITIONS angstrom
Au 0.0000000000 0.0000000000 0.0000000000 
Au 2.0858261310 2.0923677971 0.0000000000 
Au 2.0896715523 0.0000000000 2.0836861304 
Au 0.0000000000 2.0833869353 2.0832750856 
Au 4.1712330038 0.0000000000 0.0000000000 
Au 6.2321002108 2.0827242962 0.0000000000 
Au 6.2350443310 0.0000000000 2.0947831308 
Au 4.1865217334 2.0944271635 2.0939097089 
Au 0.0000000000 4.1684142376 0.0000000000 
Au 2.0948726318 6.2831892095 0.0000000000 
Au 2.0790317783 4.1728952450 2.0939791523 
Au 0.0000000000 6.2607662359 2.0804372733 
Au 4.1667278486 4.1751443799 0.0000000000 
Au 6.2857455361 6.2707102620 0.0000000000 
Au 6.2533558937 4.1766126412 2.0891147797 
Au 4.1692817956 6.2538291732 2.0857903489 
Au 0.0000000000 0.0000000000 4.1661344635 
Au 2.0770135453 2.0878122272 4.1736515444 
Au 2.0839363642 0.0000000000 6.2592836060 
Au 0.0000000000 2.0923707529 6.2462984897 
Au 4.1533930101 0.0000000000 4.1584099884 
Au 6.2747659464 2.0916026830 4.1557593596 
Au 6.2860384485 0.0000000000 6.2871093946 
Au 4.1906734601 2.0922375843 6.2474705427 
Au 0.0000000000 4.1721469564 4.1697235243 
Au 2.0883526496 6.2512626154 4.1611400690 
Au 2.0935677293 4.1796099065 6.2659288837 
Au 0.0000000000 6.2497459653 6.2834617350 
Au 4.1905284881 4.1660975424 4.1606606234 
Au 6.2535760264 6.2604743294 4.1866077639 
Au 6.2858708924 4.1533460995 6.2787262242 
Au 4.1717601067 6.2613351506 6.2562992161 
Au 0.0000000000 0.0000000000 8.3311602386 
Au 2.0901672994 2.0786942151 8.3643809385 
Au 2.0863754571 0.0000000000 10.4004333227 
Au 0.0000000000 2.0942778096 10.4060827936 
Au 4.1773619037 0.0000000000 8.3221994850 
Au 6.2768279668 2.0949296907 8.3122695853 
Au 6.2802969365 0.0000000000 10.4718582351 
Au 4.1596009422 2.0905471636 10.4007210404 
Au 0.0000000000 4.1514301524 8.3394520968 
Au 2.0836186467 6.2731638010 8.3814570472 
Au 2.0852712329 4.1504359279 10.3859774302 
Au 0.0000000000 6.2848306596 10.4134456806 
Au 4.1697330260 4.1903795960 8.3168933388 
Au 6.2475155573 6.2433517357 8.3397143888 
Au 6.2431042845 4.1716605876 10.3848103874 
Au 4.1811549074 6.2377583625 10.4279294920 

