&CONTROL
   tprnfor          = .true.
   disk_io          = 'low'
   pseudo_dir       = './'
/
&SYSTEM
   ecutwfc          = 50
   occupations      = 'smearing'
   degauss          = 0.002
   smearing         = 'gauss'
   ntyp             = 1
   nat              = 48
   ibrav            = 0
/
&ELECTRONS
/
&IONS
/
&CELL
/

ATOMIC_SPECIES
Au 196.966569 	Au.pbe-n-kjpaw_psl.1.0.0.UPF

K_POINTS automatic
5 5 5  0 0 0

CELL_PARAMETERS angstrom
8.3842929 0.00000000000000 0.00000000000000
0.00000000000000 8.3842929 0.00000000000000
0.00000000000000 0.00000000000000 12.57643935

ATOMIC_POSITIONS angstrom
Au 0.0000000000 0.0000000000 0.0000000000 
Au 2.0953296710 2.0774061682 0.0000000000 
Au 2.0864946958 0.0000000000 2.0903649204 
Au 0.0000000000 2.0899128348 2.0760899899 
Au 4.1901862960 0.0000000000 0.0000000000 
Au 6.2604171457 2.0906854828 0.0000000000 
Au 6.2832784438 0.0000000000 2.0765238899 
Au 4.1738467613 2.0803280236 2.0815215043 
Au 0.0000000000 4.1704481891 0.0000000000 
Au 2.0765919012 6.2272239457 0.0000000000 
Au 2.0829570049 4.1909534432 2.0910089990 
Au 0.0000000000 6.2296885291 2.0923599649 
Au 4.1596043886 4.1728887708 0.0000000000 
Au 6.2322642071 6.2339206315 0.0000000000 
Au 6.2823643754 4.1759684847 2.0861009894 
Au 4.1709464087 6.2391852025 2.0958624056 
Au 0.0000000000 0.0000000000 4.1552892257 
Au 2.0957825769 2.0908036721 4.1825585220 
Au 2.0763457344 0.0000000000 6.2332929663 
Au 0.0000000000 2.0911410708 6.2258646116 
Au 4.1851636222 0.0000000000 4.1707978403 
Au 6.2646233533 2.0913612842 4.1797175106 
Au 6.2841896702 0.0000000000 6.2865056070 
Au 4.1875374839 2.0814318979 6.2836004294 
Au 0.0000000000 4.1789303631 4.1631117252 
Au 2.0821595761 6.2413789261 4.1749039724 
Au 2.0805268520 4.1871005384 6.2305694791 
Au 0.0000000000 6.2676178932 6.2824636590 
Au 4.1757227886 4.1693172210 4.1870637294 
Au 6.2597465830 6.2626128674 4.1657113029 
Au 6.2506221798 4.1747871681 6.2315848753 
Au 4.1902000138 6.2848784985 6.2427704397 
Au 0.0000000000 0.0000000000 8.3440554182 
Au 2.0901158042 2.0808693257 8.3029647794 
Au 2.0764583205 0.0000000000 10.4453018335 
Au 0.0000000000 2.0862143704 10.3828651667 
Au 4.1890494329 0.0000000000 8.3341325405 
Au 6.2413260646 2.0850988960 8.3317239951 
Au 6.2597598192 0.0000000000 10.4032804233 
Au 4.1518885498 2.0926841669 10.3984127227 
Au 0.0000000000 4.1716073076 8.3173727658 
Au 2.0927098436 6.2398334879 8.3466315708 
Au 2.0816096997 4.1683342376 10.4145249904 
Au 0.0000000000 6.2617009503 10.3903393317 
Au 4.1717616931 4.1765629484 8.3182548878 
Au 6.2416329101 6.2511356018 8.3177622107 
Au 6.2649365519 4.1861750412 10.4219185110 
Au 4.1872100614 6.2694878937 10.4206615777 

