&control
calculation = 'scf',
prefix = 'gold',
pseudo_dir = './',
outdir = './',
tprnfor = .true.,

/
&system
ibrav =3,
celldm(1) = 6.0,
nat =2,
ntyp = 1,
ecutwfc =50,
occupations = 'smearing',
smearing = 'gaussian',
degauss = 0.02
/
&electrons
conv_thr = 1.0d-9,
/
&ions
/
&cell
/
ATOMIC_SPECIES
Au 196.96657 Au.pbe-n-kjpaw_psl.1.0.0.UPF
ATOMIC_POSITIONS crystal 
Au 0.00 0.00 0.00
Au 0.50 0.50 0.50
 
K_POINTS automatic
12 12 12 0 0 0



