&control
calculation = 
scf
,
prefix = 
gold
,
pseudo_dir = 
./
,
outdir = 
./
/
&system
ibrav = 0,
nat = 4,
ntyp = 1,
ecutwfc = 60,
/
&electrons
conv_thr = 1.0d-8
/
ATOMIC_SPECIES
Au 196.96657 Au.UPF

CELL_PARAMETERS {bohr}
7.7 0.00 0.00
0.00 7.7 0.00
0.00 0.00 7.7

ATOMIC_POSITIONS {crystal}
Au 0.00 0.00 0.00
Au 0.50 0.50 0.00
Au 0.50 0.00 0.50
Au 0.00 0.50 0.50

K_POINTS automatic
8 8 8 0 0 0
