&control
calculation = 'scf',
prefix = 'gold',
pseudo_dir = './',
outdir = './',
tprnfor = .true.,
tstress = .true.
/
&system
ibrav =0,
nat =54,
ntyp = 1,
ecutwfc =50,
occupations = 'smearing',
smearing = 'gaussian',
degauss = 0.02
/
&electrons
conv_thr = 1.0d-9,
/
&ions
/
&cell
/ 
K_POINTS automatic
5 5 5 0 0 0
CELL_PARAMETERS bohr
   18.7564391999999991    0.0000000000000000    0.0000000000000000
    0.0000000000000000   18.7564391999999991    0.0000000000000000
    0.0000000000000000    0.0000000000000000   18.7564391999999991
ATOMIC_SPECIES
 Au  196.96657   Au.pbe-n-kjpaw_psl.1.0.0.UPF
ATOMIC_POSITIONS crystal
 Au   0.0010663004734929  0.0000000000000000  0.0000000000000000
 Au   0.3333333333333333  0.0000000000000000  0.0000000000000000
 Au   0.6666666666666666  0.0000000000000000  0.0000000000000000
 Au   0.0000000000000000  0.3333333333333333  0.0000000000000000
 Au   0.3333333333333333  0.3333333333333333  0.0000000000000000
 Au   0.6666666666666666  0.3333333333333333  0.0000000000000000
 Au   0.0000000000000000  0.6666666666666666  0.0000000000000000
 Au   0.3333333333333333  0.6666666666666666  0.0000000000000000
 Au   0.6666666666666666  0.6666666666666666  0.0000000000000000
 Au   0.0000000000000000  0.0000000000000000  0.3333333333333333
 Au   0.3333333333333333  0.0000000000000000  0.3333333333333333
 Au   0.6666666666666666  0.0000000000000000  0.3333333333333333
 Au   0.0000000000000000  0.3333333333333333  0.3333333333333333
 Au   0.3333333333333333  0.3333333333333333  0.3333333333333333
 Au   0.6666666666666666  0.3333333333333333  0.3333333333333333
 Au   0.0000000000000000  0.6666666666666666  0.3333333333333333
 Au   0.3333333333333333  0.6666666666666666  0.3333333333333333
 Au   0.6666666666666666  0.6666666666666666  0.3333333333333333
 Au   0.0000000000000000  0.0000000000000000  0.6666666666666666
 Au   0.3333333333333333  0.0000000000000000  0.6666666666666666
 Au   0.6666666666666666  0.0000000000000000  0.6666666666666666
 Au   0.0000000000000000  0.3333333333333333  0.6666666666666666
 Au   0.3333333333333333  0.3333333333333333  0.6666666666666666
 Au   0.6666666666666666  0.3333333333333333  0.6666666666666666
 Au   0.0000000000000000  0.6666666666666666  0.6666666666666666
 Au   0.3333333333333333  0.6666666666666666  0.6666666666666666
 Au   0.6666666666666666  0.6666666666666666  0.6666666666666666
 Au   0.1513333333333333  0.1749000000000000  0.1503333333333333
 Au   0.4846666666666666  0.1749000000000000  0.1503333333333333
 Au   0.8180000000000001  0.1749000000000000  0.1503333333333333
 Au   0.1513333333333333  0.5082333333333332  0.1503333333333333
 Au   0.4846666666666666  0.5082333333333332  0.1503333333333333
 Au   0.8180000000000001  0.5082333333333332  0.1503333333333333
 Au   0.1513333333333333  0.8415666666666667  0.1503333333333333
 Au   0.4846666666666666  0.8415666666666667  0.1503333333333333
 Au   0.8180000000000001  0.8415666666666667  0.1503333333333333
 Au   0.1513333333333333  0.1749000000000000  0.4836666666666666
 Au   0.4846666666666666  0.1749000000000000  0.4836666666666666
 Au   0.8180000000000001  0.1749000000000000  0.4836666666666666
 Au   0.1513333333333333  0.5082333333333332  0.4836666666666666
 Au   0.4846666666666666  0.5082333333333332  0.4836666666666666
 Au   0.8180000000000001  0.5082333333333332  0.4836666666666666
 Au   0.1513333333333333  0.8415666666666667  0.4836666666666666
 Au   0.4846666666666666  0.8415666666666667  0.4836666666666666
 Au   0.8180000000000001  0.8415666666666667  0.4836666666666666
 Au   0.1513333333333333  0.1749000000000000  0.8169999999999999
 Au   0.4846666666666666  0.1749000000000000  0.8169999999999999
 Au   0.8180000000000001  0.1749000000000000  0.8169999999999999
 Au   0.1513333333333333  0.5082333333333332  0.8169999999999999
 Au   0.4846666666666666  0.5082333333333332  0.8169999999999999
 Au   0.8180000000000001  0.5082333333333332  0.8169999999999999
 Au   0.1513333333333333  0.8415666666666667  0.8169999999999999
 Au   0.4846666666666666  0.8415666666666667  0.8169999999999999
 Au   0.8180000000000001  0.8415666666666667  0.8169999999999999


